32	0

0	4	2	3	4	5
10	1	6
9	2	6	9
8	2	6	9
6	2	6	9
4	1	7
3	2	8	11
2	1	10
9	2	10	11
4	2	12	13
4	2	12	13
4	2	14	15
3	2	14	15
6	3	16	17	18
6	3	16	17	18
8	3	19	20	21
3	3	19	20	21
2	3	19	20	21
7	1	24
3	1	23
1	2	22	23
5	1	24
3	1	24
5	1	25
7	2	26	28
4	1	27
10	1	29
9	1	29
9	2	30	31
7	1	32
8	1	32
0	0
